17	4
42	37	43	48	
0	0	0	0	0	3	2	3	4	
1	2	5	2	8	3	5	12	17	
4	6	7	6	9	2	11	16	
2	5	8	7	3	3	9	11	13	
2	10	5	4	3	3	6	7	8	
125	3	7	7	4	1	17	
150	4	1	2	4	3	14	17	17	
100	1	4	3	8	2	10	11	
250	4	1	3	7	3	15	16	17	
175	1	7	1	4	1	17	
175	4	6	10	4	1	17	
225	7	2	7	3	3	17	17	17	
5	8	9	9	10	2	17	17	
3	7	6	3	9	1	17	
2	10	5	2	2	1	17	
3	2	2	1	1	2	17	17	
0	0	0	0	0	0	
